100
128
15
19
19
4
1
22
17
5
15
25
10
3
1
7
50
3
5
2
5
6
4
24
9
7
3
1
22
17
13
8
3
6
7
2
19
1
18
26
6
27
10
2
42
5
16
14
11
10
55
3
15
12
2
12
46
2
15
3
7
17
40
50
6
42
50
46
44
42
52
36
48
47
48
58
10
32
1
5
44
4
63
64
1
45
2
38
1
5
4
1
14
64
34
21
1
35
64
44
42
42